(set-logic QF_S)
(declare-fun var0 () String)
(assert (RegexIn var0 (RegexConcat (RegexPlus (RegexUnion (Str2Reg "0") (Str2Reg "1"))) (RegexConcat (RegexPlus (RegexStar (Str2Reg "2"))) (RegexConcat (RegexUnion (RegexStar (Str2Reg "33")) (RegexStar (Str2Reg "44"))) (RegexConcat (RegexPlus (RegexPlus (Str2Reg "555"))) (RegexConcat (RegexStar (RegexStar (Str2Reg "6"))) (RegexConcat (RegexStar (RegexStar (Str2Reg "777"))) (RegexConcat (RegexUnion (RegexUnion (Str2Reg "888") (Str2Reg "999")) (RegexUnion (Str2Reg "aa") (Str2Reg "bb"))) (RegexConcat (RegexPlus (RegexPlus (Str2Reg "cc"))) (RegexConcat (RegexStar (RegexUnion (Str2Reg "ddd") (Str2Reg "ee"))) (RegexConcat (RegexPlus (RegexPlus (Str2Reg "f"))) (RegexConcat (RegexStar (RegexStar (Str2Reg "gg"))) (RegexConcat (RegexUnion (RegexUnion (Str2Reg "h") (Str2Reg "i")) (RegexUnion (Str2Reg "jjj") (Str2Reg "kk"))) (RegexConcat (RegexPlus (RegexUnion (Str2Reg "lll") (Str2Reg "mm"))) (RegexConcat (RegexPlus (RegexStar (Str2Reg "nn"))) (RegexConcat (RegexUnion (RegexStar (Str2Reg "ooo")) (RegexStar (Str2Reg "pp"))) (RegexConcat (RegexPlus (RegexUnion (Str2Reg "q") (Str2Reg "r"))) (RegexConcat (RegexPlus (RegexPlus (Str2Reg "ss"))) (RegexConcat (RegexUnion (RegexUnion (Str2Reg "t") (Str2Reg "u")) (RegexUnion (Str2Reg "v") (Str2Reg "ww"))) (RegexConcat (RegexPlus (RegexUnion (Str2Reg "xx") (Str2Reg "yyy"))) (RegexConcat (RegexUnion (RegexUnion (Str2Reg "zz") (Str2Reg "AA")) (RegexUnion (Str2Reg "BBB") (Str2Reg "C"))) (RegexConcat (RegexUnion (RegexUnion (Str2Reg "D") (Str2Reg "E")) (RegexUnion (Str2Reg "FFF") (Str2Reg "G"))) (RegexConcat (RegexPlus (RegexUnion (Str2Reg "HHH") (Str2Reg "III"))) (RegexConcat (RegexPlus (RegexUnion (Str2Reg "J") (Str2Reg "KK"))) (RegexConcat (RegexUnion (RegexPlus (Str2Reg "L")) (RegexPlus (Str2Reg "M"))) (RegexConcat (RegexUnion (RegexStar (Str2Reg "NNN")) (RegexStar (Str2Reg "O"))) (RegexConcat (RegexStar (RegexPlus (Str2Reg "PP"))) (RegexConcat (RegexUnion (RegexPlus (Str2Reg "QQQ")) (RegexPlus (Str2Reg "RRR"))) (RegexConcat (RegexUnion (RegexPlus (Str2Reg "S")) (RegexPlus (Str2Reg "TTT"))) (RegexConcat (RegexPlus (RegexStar (Str2Reg "UUU"))) (RegexConcat (RegexPlus (RegexUnion (Str2Reg "V") (Str2Reg "W"))) (RegexConcat (RegexStar (RegexPlus (Str2Reg "XXX"))) (RegexConcat (RegexUnion (RegexUnion (Str2Reg "YYY") (Str2Reg "ZZZ")) (RegexUnion (Str2Reg "!!!") (Str2Reg "\"\""))) (RegexStar (RegexUnion (Str2Reg "##") (Str2Reg "$")))))))))))))))))))))))))))))))))))))
(check-sat)